4 
5  11 24 48 
6  04 19 33 48 
7  05 20 35 50 
8  05 20 35 50 
9  05 20 35 50 
10  07 22 37 52 
11  07 22 37 52 
12  07 22 37 52 
13  07 23 38 53 
14  08 23 38 53 
15  07 21 36 51 
16  06 21 36 51 
17  06 21 36 51 
18  06 21 36 51 
19  07 21 36 51 
20  06 21 36 51 
21  06 21 36 
22  06 
23  
0 
